; DUP3 SWAP1 MLOAD SWAP1 => MLOAD DUP3
(set-option :produce-proofs true)
; 
(set-info :status unknown)
(declare-fun storage_t ((_ BitVec 256) (_ BitVec 256) (_ BitVec 256) (_ BitVec 256) Int (_ BitVec 256)) (_ BitVec 256))
(declare-fun storage_s ((_ BitVec 256) (_ BitVec 256) (_ BitVec 256) (_ BitVec 256) Int (_ BitVec 256)) (_ BitVec 256))
(declare-fun exc_halt_t (Int) Bool)
(declare-fun exc_halt_s (Int) Bool)
(declare-fun sc_t (Int) (_ BitVec 6))
(declare-fun stack_t ((_ BitVec 256) (_ BitVec 256) (_ BitVec 256) (_ BitVec 256) Int (_ BitVec 6)) (_ BitVec 256))
(declare-fun stack_s ((_ BitVec 256) (_ BitVec 256) (_ BitVec 256) (_ BitVec 256) Int (_ BitVec 6)) (_ BitVec 256))
(declare-fun sc_s (Int) (_ BitVec 6))
(declare-fun used_gas_t ((_ BitVec 256) (_ BitVec 256) (_ BitVec 256) (_ BitVec 256) Int) Int)
(declare-fun used_gas_s ((_ BitVec 256) (_ BitVec 256) (_ BitVec 256) (_ BitVec 256) Int) Int)
(declare-fun f_MLOAD ((_ BitVec 256) (_ BitVec 256) (_ BitVec 256) (_ BitVec 256) (_ BitVec 256)) (_ BitVec 256))
(assert
 (exists ((x_0 (_ BitVec 256)) (x_1 (_ BitVec 256)) (x_2 (_ BitVec 256)) (x_MLOAD_0 (_ BitVec 256)) )(let (($x11815 (forall ((w (_ BitVec 256)) )(let ((?x5692 (storage_t x_0 x_1 x_2 x_MLOAD_0 2 w)))
 (let ((?x5041 (storage_s x_0 x_1 x_2 x_MLOAD_0 4 w)))
 (= ?x5041 ?x5692))))
 ))
 (let (($x2163 (exc_halt_t 2)))
 (let (($x7172 (exc_halt_s 4)))
 (let (($x9545 (= $x7172 $x2163)))
 (let (($x5148 (forall ((n (_ BitVec 6)) )(let ((?x2714 (sc_t 2)))
 (let (($x9647 (bvsle ?x2714 n)))
 (let ((?x10538 (stack_t x_0 x_1 x_2 x_MLOAD_0 2 n)))
 (let ((?x2009 (stack_s x_0 x_1 x_2 x_MLOAD_0 4 n)))
 (let (($x2738 (= ?x2009 ?x10538)))
 (or $x2738 $x9647)))))))
 ))
 (let ((?x2714 (sc_t 2)))
 (let ((?x4305 (sc_s 4)))
 (let (($x7917 (= ?x4305 ?x2714)))
 (let ((?x11616 (used_gas_t x_0 x_1 x_2 x_MLOAD_0 0)))
 (let ((?x7120 (used_gas_s x_0 x_1 x_2 x_MLOAD_0 0)))
 (let (($x4369 (= ?x7120 ?x11616)))
 (let (($x6765 (forall ((w (_ BitVec 256)) )(let ((?x4712 (storage_t x_0 x_1 x_2 x_MLOAD_0 0 w)))
 (let ((?x378 (storage_s x_0 x_1 x_2 x_MLOAD_0 0 w)))
 (= ?x378 ?x4712))))
 ))
 (let (($x56 (exc_halt_t 0)))
 (let (($x57 (exc_halt_s 0)))
 (let (($x58 (= $x57 $x56)))
 (let (($x8967 (forall ((n (_ BitVec 6)) )(let ((?x63 (sc_t 0)))
 (let (($x4790 (bvsle ?x63 n)))
 (let ((?x10096 (stack_t x_0 x_1 x_2 x_MLOAD_0 0 n)))
 (let ((?x6184 (stack_s x_0 x_1 x_2 x_MLOAD_0 0 n)))
 (let (($x624 (= ?x6184 ?x10096)))
 (or $x624 $x4790)))))))
 ))
 (let ((?x63 (sc_t 0)))
 (let ((?x72 (sc_s 0)))
 (let (($x73 (= ?x72 ?x63)))
 (let (($x3854 (not (= ((_ extract 6 6) (bvadd (_ bv1 7) (concat (_ bv0 1) (sc_t 1)))) (_ bv0 1)))))
 (let (($x3508 (exc_halt_t 1)))
 (let (($x4331 (= $x2163 (or $x3508 $x3854 (not (bvsle (_ bv0 6) (bvadd (_ bv61 6) (sc_t 1))))))))
 (let (($x8051 (forall ((w (_ BitVec 256)) )(let ((?x8497 (storage_t x_0 x_1 x_2 x_MLOAD_0 1 w)))
 (let ((?x5692 (storage_t x_0 x_1 x_2 x_MLOAD_0 2 w)))
 (= ?x5692 ?x8497))))
 ))
 (let (($x10497 (forall ((n (_ BitVec 6)) )(let ((?x8347 (sc_t 1)))
 (let ((?x3171 (bvadd (_ bv61 6) ?x8347)))
 (let (($x6358 (bvsle ?x3171 n)))
 (let ((?x1905 (stack_t x_0 x_1 x_2 x_MLOAD_0 1 n)))
 (let ((?x10538 (stack_t x_0 x_1 x_2 x_MLOAD_0 2 n)))
 (or (= ?x10538 ?x1905) $x6358)))))))
 ))
 (let (($x1950 (= ?x2714 (bvadd (_ bv1 6) (sc_t 1)))))
 (let (($x8142 (= (used_gas_t x_0 x_1 x_2 x_MLOAD_0 2) (+ 3 (used_gas_t x_0 x_1 x_2 x_MLOAD_0 1)))))
 (let ((?x8347 (sc_t 1)))
 (let ((?x9514 (bvadd (_ bv63 6) ?x8347)))
 (let ((?x11347 (stack_t x_0 x_1 x_2 x_MLOAD_0 1 ?x9514)))
 (let (($x10921 (= (stack_t x_0 x_1 x_2 x_MLOAD_0 2 (bvadd (_ bv62 6) ?x8347)) (stack_t x_0 x_1 x_2 x_MLOAD_0 1 (bvadd (_ bv62 6) ?x8347)))))
 (let ((?x3171 (bvadd (_ bv61 6) ?x8347)))
 (let ((?x2751 (stack_t x_0 x_1 x_2 x_MLOAD_0 1 ?x3171)))
 (let (($x4110 (= $x3508 (or $x56 (not (bvsle (_ bv0 6) (bvadd (_ bv63 6) ?x63)))))))
 (let (($x4409 (forall ((w (_ BitVec 256)) )(let ((?x4712 (storage_t x_0 x_1 x_2 x_MLOAD_0 0 w)))
 (let ((?x8497 (storage_t x_0 x_1 x_2 x_MLOAD_0 1 w)))
 (= ?x8497 ?x4712))))
 ))
 (let (($x3611 (forall ((n (_ BitVec 6)) )(let ((?x63 (sc_t 0)))
 (let ((?x1810 (bvadd (_ bv63 6) ?x63)))
 (let (($x8820 (bvsle ?x1810 n)))
 (let ((?x10096 (stack_t x_0 x_1 x_2 x_MLOAD_0 0 n)))
 (let ((?x1905 (stack_t x_0 x_1 x_2 x_MLOAD_0 1 n)))
 (or (= ?x1905 ?x10096) $x8820)))))))
 ))
 (let ((?x7925 (f_MLOAD x_0 x_1 x_2 x_MLOAD_0 (stack_t x_0 x_1 x_2 x_MLOAD_0 0 (bvadd (_ bv63 6) ?x63)))))
 (let (($x3674 (= $x7172 (or (exc_halt_s 3) (not (bvsle (_ bv0 6) (bvadd (_ bv62 6) (sc_s 3))))))))
 (let (($x7968 (forall ((w (_ BitVec 256)) )(let ((?x675 (storage_s x_0 x_1 x_2 x_MLOAD_0 3 w)))
 (let ((?x5041 (storage_s x_0 x_1 x_2 x_MLOAD_0 4 w)))
 (= ?x5041 ?x675))))
 ))
 (let (($x10057 (forall ((n (_ BitVec 6)) )(let ((?x3688 (stack_s x_0 x_1 x_2 x_MLOAD_0 3 n)))
 (let ((?x2009 (stack_s x_0 x_1 x_2 x_MLOAD_0 4 n)))
 (let ((?x275 (sc_s 3)))
 (let ((?x10426 (bvadd (_ bv62 6) ?x275)))
 (let (($x5065 (bvsle ?x10426 n)))
 (or $x5065 (= ?x2009 ?x3688))))))))
 ))
 (let ((?x275 (sc_s 3)))
 (let (($x3822 (= ?x4305 ?x275)))
 (let (($x297 (= (used_gas_s x_0 x_1 x_2 x_MLOAD_0 4) (+ 3 (used_gas_s x_0 x_1 x_2 x_MLOAD_0 3)))))
 (let ((?x9670 (bvadd (_ bv63 6) ?x275)))
 (let ((?x3054 (stack_s x_0 x_1 x_2 x_MLOAD_0 3 ?x9670)))
 (let (($x2250 (= (stack_s x_0 x_1 x_2 x_MLOAD_0 4 (bvadd (_ bv63 6) ?x4305)) (stack_s x_0 x_1 x_2 x_MLOAD_0 3 (bvadd (_ bv62 6) ?x275)))))
 (let (($x292 (exc_halt_s 3)))
 (let (($x2995 (= $x292 (or (exc_halt_s 2) (not (bvsle (_ bv0 6) (bvadd (_ bv63 6) (sc_s 2))))))))
 (let (($x11305 (forall ((w (_ BitVec 256)) )(let ((?x546 (storage_s x_0 x_1 x_2 x_MLOAD_0 2 w)))
 (let ((?x675 (storage_s x_0 x_1 x_2 x_MLOAD_0 3 w)))
 (= ?x675 ?x546))))
 ))
 (let (($x10865 (forall ((n (_ BitVec 6)) )(let ((?x6390 (stack_s x_0 x_1 x_2 x_MLOAD_0 2 n)))
 (let ((?x3688 (stack_s x_0 x_1 x_2 x_MLOAD_0 3 n)))
 (or (bvsle (bvadd (_ bv63 6) (sc_s 2)) n) (= ?x3688 ?x6390)))))
 ))
 (let ((?x218 (sc_s 2)))
 (let (($x2729 (= ?x275 ?x218)))
 (let ((?x2459 (used_gas_s x_0 x_1 x_2 x_MLOAD_0 3)))
 (let ((?x7280 (bvadd (_ bv63 6) ?x218)))
 (let ((?x1493 (stack_s x_0 x_1 x_2 x_MLOAD_0 2 ?x7280)))
 (let (($x247 (exc_halt_s 2)))
 (let (($x8330 (= $x247 (or (exc_halt_s 1) (not (bvsle (_ bv0 6) (bvadd (_ bv62 6) (sc_s 1))))))))
 (let (($x5787 (forall ((w (_ BitVec 256)) )(let ((?x11586 (storage_s x_0 x_1 x_2 x_MLOAD_0 1 w)))
 (let ((?x546 (storage_s x_0 x_1 x_2 x_MLOAD_0 2 w)))
 (= ?x546 ?x11586))))
 ))
 (let (($x8975 (forall ((n (_ BitVec 6)) )(let ((?x5735 (stack_s x_0 x_1 x_2 x_MLOAD_0 1 n)))
 (let ((?x6390 (stack_s x_0 x_1 x_2 x_MLOAD_0 2 n)))
 (or (= ?x6390 ?x5735) (bvsle (bvadd (_ bv62 6) (sc_s 1)) n)))))
 ))
 (let ((?x154 (sc_s 1)))
 (let (($x1181 (= ?x218 ?x154)))
 (let ((?x6553 (used_gas_s x_0 x_1 x_2 x_MLOAD_0 2)))
 (let ((?x634 (bvadd (_ bv63 6) ?x154)))
 (let ((?x7526 (stack_s x_0 x_1 x_2 x_MLOAD_0 1 ?x634)))
 (let (($x1483 (not (= ((_ extract 6 6) (bvadd (_ bv1 7) (concat (_ bv0 1) ?x72))) (_ bv0 1)))))
 (let (($x189 (exc_halt_s 1)))
 (let (($x2676 (forall ((w (_ BitVec 256)) )(let ((?x378 (storage_s x_0 x_1 x_2 x_MLOAD_0 0 w)))
 (let ((?x11586 (storage_s x_0 x_1 x_2 x_MLOAD_0 1 w)))
 (= ?x11586 ?x378))))
 ))
 (let (($x4779 (forall ((n (_ BitVec 6)) )(let ((?x6184 (stack_s x_0 x_1 x_2 x_MLOAD_0 0 n)))
 (let ((?x5735 (stack_s x_0 x_1 x_2 x_MLOAD_0 1 n)))
 (or (bvsle (bvadd (_ bv61 6) (sc_s 0)) n) (= ?x5735 ?x6184)))))
 ))
 (let (($x11645 (= ?x154 (bvadd (_ bv1 6) ?x72))))
 (let (($x726 (= (stack_s x_0 x_1 x_2 x_MLOAD_0 1 (bvadd (_ bv63 6) ?x72)) (stack_s x_0 x_1 x_2 x_MLOAD_0 0 (bvadd (_ bv63 6) ?x72)))))
 (let (($x159 (= (stack_s x_0 x_1 x_2 x_MLOAD_0 1 (bvadd (_ bv62 6) ?x72)) (stack_s x_0 x_1 x_2 x_MLOAD_0 0 (bvadd (_ bv62 6) ?x72)))))
 (let ((?x1396 (bvadd (_ bv61 6) ?x72)))
 (let ((?x8806 (stack_s x_0 x_1 x_2 x_MLOAD_0 0 ?x1396)))
 (let (($x11086 (forall ((w0 (_ BitVec 256)) )(let (($x1374 (= (stack_s x_0 x_1 x_2 x_MLOAD_0 2 (bvadd (_ bv63 6) (sc_s 2))) w0)))
 (let ((?x8978 (f_MLOAD x_0 x_1 x_2 x_MLOAD_0 w0)))
 (= ?x8978 (ite $x1374 x_MLOAD_0 (_ bv0 256))))))
 ))
 (let (($x11159 (forall ((w (_ BitVec 256)) )(let ((?x378 (storage_s x_0 x_1 x_2 x_MLOAD_0 0 w)))
 (= ?x378 (_ bv0 256))))
 ))
 (let (($x5662 (= ?x7120 0)))
 (let (($x11450 (not $x57)))
 (let (($x9537 (= (stack_s x_0 x_1 x_2 x_MLOAD_0 0 (_ bv2 6)) x_2)))
 (let (($x1591 (= (stack_s x_0 x_1 x_2 x_MLOAD_0 0 (_ bv1 6)) x_1)))
 (let (($x2705 (= (stack_s x_0 x_1 x_2 x_MLOAD_0 0 (_ bv0 6)) x_0)))
 (let (($x5315 (= ?x72 (_ bv3 6))))
 (and $x5315 $x2705 $x1591 $x9537 $x11450 $x5662 $x11159 $x11086 (= ?x7526 ?x8806) (= (stack_s x_0 x_1 x_2 x_MLOAD_0 1 ?x1396) ?x8806) $x159 $x726 (= (used_gas_s x_0 x_1 x_2 x_MLOAD_0 1) (+ 3 ?x7120)) $x11645 $x4779 $x2676 (= $x189 (or $x57 (not (bvsle (_ bv0 6) ?x1396)) $x1483)) (= ?x1493 (stack_s x_0 x_1 x_2 x_MLOAD_0 1 (bvadd (_ bv62 6) ?x154))) (= (stack_s x_0 x_1 x_2 x_MLOAD_0 2 (bvadd (_ bv62 6) ?x218)) ?x7526) (= ?x6553 (+ 3 (used_gas_s x_0 x_1 x_2 x_MLOAD_0 1))) $x1181 $x8975 $x5787 $x8330 (= ?x3054 (f_MLOAD x_0 x_1 x_2 x_MLOAD_0 ?x1493)) (= ?x2459 (+ 3 ?x6553)) $x2729 $x10865 $x11305 $x2995 $x2250 (= (stack_s x_0 x_1 x_2 x_MLOAD_0 4 (bvadd (_ bv62 6) ?x4305)) ?x3054) $x297 $x3822 $x10057 $x7968 $x3674 (= ?x11347 ?x7925) (= (used_gas_t x_0 x_1 x_2 x_MLOAD_0 1) (+ 3 ?x11616)) (= ?x8347 ?x63) $x3611 $x4409 $x4110 (= (stack_t x_0 x_1 x_2 x_MLOAD_0 2 (bvadd (_ bv63 6) ?x2714)) ?x2751) (= (stack_t x_0 x_1 x_2 x_MLOAD_0 2 ?x3171) ?x2751) $x10921 (= (stack_t x_0 x_1 x_2 x_MLOAD_0 2 ?x9514) ?x11347) $x8142 $x1950 $x10497 $x8051 $x4331 $x73 $x8967 $x58 $x6765 $x4369 (not (and $x7917 $x5148 $x9545 $x11815))))))))))))))))))))))))))))))))))))))))))))))))))))))))))))))))))))))))))))))))))))
 )
(check-sat)
(get-proof)
